5
26
0 50 96 2 29 21 46 37 59 54 40 83 23 15 35 71 26 33 91 36 76 42 84 86 64 63
22
0 44 31 56 85 8 89 68 28 30 34 51 5 97 72 66 45 16 19 17 53 43
10
0 25 94 77 1 22 55 47 14 70
23
0 99 20 18 74 90 67 82 12 9 81 27 92 41 39 24 10 7 11 73 61 75 79
24
0 98 88 48 62 69 57 32 93 6 49 78 3 100 58 38 87 4 52 60 13 95 65 80
